bestever    1603    in generation 0
[12, 4, 16, 19, 18, 2, 9, 3, 14, 20, 1, 10, 7, 11, 5, 13, 8, 15, 17, 6, 12, 4, 16, 19, 18, 2, 9, 3, 14, 20, 1, 10, 7, 11, 5, 13, 8, 15, 17, 6, 12, 4, 16, 19, 18, 2, 9, 3, 14, 20, 1, 10, 7, 11, 5, 13, 8, 15, 17, 6, 12, 4, 16, 19, 18, 2, 9, 3, 14, 20, 1, 10, 7, 11, 5, 13, 8, 15, 17, 6, 12, 4, 16, 19, 18, 2, 9, 3, 14, 20, 1, 10, 7, 11, 5, 13, 8, 15, 17, 6, 12, 4, 16, 19, 18, 2, 9, 3, 14, 20, 1, 10, 7, 11, 5, 13, 8, 15, 17, 6, 12, 4, 16, 19, 18, 2, 9, 3, 14, 20, 1, 10, 7, 11, 5, 13, 8, 15, 17, 6, 12, 4, 16, 19, 18, 2, 9, 3, 14, 20, 1, 10, 7, 11, 5, 13, 8, 15, 17, 6, 12, 4, 16, 19, 18, 2, 9, 3, 14, 20, 1, 10, 7, 11, 5, 13, 8, 15, 17, 6, 12, 4, 16, 19, 18, 2, 9, 3, 14, 20, 1, 10, 7, 11, 5, 13, 8, 15, 17, 6]
bestever    1581    in generation 13
[12, 4, 16, 19, 18, 2, 9, 3, 14, 20, 1, 10, 7, 11, 13, 5, 8, 15, 17, 6, 12, 4, 16, 19, 18, 2, 9, 3, 14, 20, 1, 10, 7, 11, 13, 5, 8, 15, 17, 6, 12, 4, 16, 19, 18, 2, 9, 3, 14, 20, 1, 10, 7, 11, 13, 5, 8, 15, 17, 6, 12, 4, 16, 19, 18, 2, 9, 3, 14, 20, 1, 10, 7, 11, 13, 5, 8, 15, 17, 6, 12, 4, 16, 19, 18, 2, 9, 3, 14, 20, 1, 10, 7, 11, 13, 5, 8, 15, 17, 6, 12, 4, 16, 19, 18, 2, 9, 3, 14, 20, 1, 10, 7, 11, 13, 5, 8, 15, 17, 6, 12, 4, 16, 19, 18, 2, 9, 3, 14, 20, 1, 10, 7, 11, 13, 5, 8, 15, 17, 6, 12, 4, 16, 19, 18, 2, 9, 3, 14, 20, 1, 10, 7, 11, 13, 5, 8, 15, 17, 6, 12, 4, 16, 19, 18, 2, 9, 3, 14, 20, 1, 10, 7, 11, 13, 5, 8, 15, 17, 6, 12, 4, 16, 19, 18, 2, 9, 3, 14, 20, 1, 10, 7, 11, 13, 5, 8, 15, 17, 6]
bestever    1534    in generation 25
[12, 4, 16, 19, 18, 2, 9, 3, 14, 20, 1, 10, 7, 8, 11, 13, 5, 15, 17, 6, 12, 4, 16, 19, 18, 2, 9, 3, 14, 20, 1, 10, 7, 8, 11, 13, 5, 15, 17, 6, 12, 4, 16, 19, 18, 2, 9, 3, 14, 20, 1, 10, 7, 8, 11, 13, 5, 15, 17, 6, 12, 4, 16, 19, 18, 2, 9, 3, 14, 20, 1, 10, 7, 8, 11, 13, 5, 15, 17, 6, 12, 4, 16, 19, 18, 2, 9, 3, 14, 20, 1, 10, 7, 8, 11, 13, 5, 15, 17, 6, 12, 4, 16, 19, 18, 2, 9, 3, 14, 20, 1, 10, 7, 8, 11, 13, 5, 15, 17, 6, 12, 4, 16, 19, 18, 2, 9, 3, 14, 20, 1, 10, 7, 8, 11, 13, 5, 15, 17, 6, 12, 4, 16, 19, 18, 2, 9, 3, 14, 20, 1, 10, 7, 8, 11, 13, 5, 15, 17, 6, 12, 4, 16, 19, 18, 2, 9, 3, 14, 20, 1, 10, 7, 8, 11, 13, 5, 15, 17, 6, 12, 4, 16, 19, 18, 2, 9, 3, 14, 20, 1, 10, 7, 8, 11, 13, 5, 15, 17, 6]
bestever    1521    in generation 40
[12, 4, 16, 19, 20, 18, 2, 9, 3, 14, 1, 10, 8, 7, 11, 13, 5, 15, 17, 6, 12, 4, 16, 19, 20, 18, 2, 9, 3, 14, 1, 10, 8, 7, 11, 13, 5, 15, 17, 6, 12, 4, 16, 19, 20, 18, 2, 9, 3, 14, 1, 10, 8, 7, 11, 13, 5, 15, 17, 6, 12, 4, 16, 19, 20, 18, 2, 9, 3, 14, 1, 10, 8, 7, 11, 13, 5, 15, 17, 6, 12, 4, 16, 19, 20, 18, 2, 9, 3, 14, 1, 10, 8, 7, 11, 13, 5, 15, 17, 6, 12, 4, 16, 19, 20, 18, 2, 9, 3, 14, 1, 10, 8, 7, 11, 13, 5, 15, 17, 6, 12, 4, 16, 19, 20, 18, 2, 9, 3, 14, 1, 10, 8, 7, 11, 13, 5, 15, 17, 6, 12, 4, 16, 19, 20, 18, 2, 9, 3, 14, 1, 10, 8, 7, 11, 13, 5, 15, 17, 6, 12, 4, 16, 19, 20, 18, 2, 9, 3, 14, 1, 10, 8, 7, 11, 13, 5, 15, 17, 6, 12, 4, 16, 19, 20, 18, 2, 9, 3, 14, 1, 10, 8, 7, 11, 13, 5, 15, 17, 6]
bestever    1519    in generation 167
[12, 16, 4, 19, 20, 2, 9, 3, 14, 1, 8, 7, 10, 11, 13, 5, 18, 15, 17, 6, 12, 16, 4, 19, 20, 2, 9, 3, 14, 1, 8, 7, 10, 11, 13, 5, 18, 15, 17, 6, 12, 16, 4, 19, 20, 2, 9, 3, 14, 1, 8, 7, 10, 11, 13, 5, 18, 15, 17, 6, 12, 16, 4, 19, 20, 2, 9, 3, 14, 1, 8, 7, 10, 11, 13, 5, 18, 15, 17, 6, 12, 16, 4, 19, 20, 2, 9, 3, 14, 1, 8, 7, 10, 11, 13, 5, 18, 15, 17, 6, 12, 16, 4, 19, 20, 2, 9, 3, 14, 1, 8, 7, 10, 11, 13, 5, 18, 15, 17, 6, 12, 16, 4, 19, 20, 2, 9, 3, 14, 1, 8, 7, 10, 11, 13, 5, 18, 15, 17, 6, 12, 16, 4, 19, 20, 2, 9, 3, 14, 1, 8, 7, 10, 11, 13, 5, 18, 15, 17, 6, 12, 16, 4, 19, 20, 2, 9, 3, 14, 1, 8, 7, 10, 11, 13, 5, 18, 15, 17, 6, 12, 16, 4, 19, 20, 2, 9, 3, 14, 1, 8, 7, 10, 11, 13, 5, 18, 15, 17, 6]
bestever    1509    in generation 182
[12, 16, 4, 19, 20, 2, 9, 3, 14, 1, 8, 10, 11, 13, 5, 18, 15, 17, 7, 6, 12, 16, 4, 19, 20, 2, 9, 3, 14, 1, 8, 10, 11, 13, 5, 18, 15, 17, 7, 6, 12, 16, 4, 19, 20, 2, 9, 3, 14, 1, 8, 10, 11, 13, 5, 18, 15, 17, 7, 6, 12, 16, 4, 19, 20, 2, 9, 3, 14, 1, 8, 10, 11, 13, 5, 18, 15, 17, 7, 6, 12, 16, 4, 19, 20, 2, 9, 3, 14, 1, 8, 10, 11, 13, 5, 18, 15, 17, 7, 6, 12, 16, 4, 19, 20, 2, 9, 3, 14, 1, 8, 10, 11, 13, 5, 18, 15, 17, 7, 6, 12, 16, 4, 19, 20, 2, 9, 3, 14, 1, 8, 10, 11, 13, 5, 18, 15, 17, 7, 6, 12, 16, 4, 19, 20, 2, 9, 3, 14, 1, 8, 10, 11, 13, 5, 18, 15, 17, 7, 6, 12, 16, 4, 19, 20, 2, 9, 3, 14, 1, 8, 10, 11, 13, 5, 18, 15, 17, 7, 6, 12, 16, 4, 19, 20, 2, 9, 3, 14, 1, 8, 10, 11, 13, 5, 18, 15, 17, 7, 6]
bestever    1493    in generation 194
[12, 16, 4, 19, 20, 2, 3, 14, 9, 1, 8, 10, 11, 13, 5, 18, 15, 17, 7, 6, 12, 16, 4, 19, 20, 2, 3, 14, 9, 1, 8, 10, 11, 13, 5, 18, 15, 17, 7, 6, 12, 16, 4, 19, 20, 2, 3, 14, 9, 1, 8, 10, 11, 13, 5, 18, 15, 17, 7, 6, 12, 16, 4, 19, 20, 2, 3, 14, 9, 1, 8, 10, 11, 13, 5, 18, 15, 17, 7, 6, 12, 16, 4, 19, 20, 2, 3, 14, 9, 1, 8, 10, 11, 13, 5, 18, 15, 17, 7, 6, 12, 16, 4, 19, 20, 2, 3, 14, 9, 1, 8, 10, 11, 13, 5, 18, 15, 17, 7, 6, 12, 16, 4, 19, 20, 2, 3, 14, 9, 1, 8, 10, 11, 13, 5, 18, 15, 17, 7, 6, 12, 16, 4, 19, 20, 2, 3, 14, 9, 1, 8, 10, 11, 13, 5, 18, 15, 17, 7, 6, 12, 16, 4, 19, 20, 2, 3, 14, 9, 1, 8, 10, 11, 13, 5, 18, 15, 17, 7, 6, 12, 16, 4, 19, 20, 2, 3, 14, 9, 1, 8, 10, 11, 13, 5, 18, 15, 17, 7, 6]
bestever    1488    in generation 209
[12, 16, 4, 19, 2, 20, 14, 3, 9, 1, 8, 11, 13, 10, 5, 18, 15, 17, 7, 6, 12, 16, 4, 19, 2, 20, 14, 3, 9, 1, 8, 11, 13, 10, 5, 18, 15, 17, 7, 6, 12, 16, 4, 19, 2, 20, 14, 3, 9, 1, 8, 11, 13, 10, 5, 18, 15, 17, 7, 6, 12, 16, 4, 19, 2, 20, 14, 3, 9, 1, 8, 11, 13, 10, 5, 18, 15, 17, 7, 6, 12, 16, 4, 19, 2, 20, 14, 3, 9, 1, 8, 11, 13, 10, 5, 18, 15, 17, 7, 6, 12, 16, 4, 19, 2, 20, 14, 3, 9, 1, 8, 11, 13, 10, 5, 18, 15, 17, 7, 6, 12, 16, 4, 19, 2, 20, 14, 3, 9, 1, 8, 11, 13, 10, 5, 18, 15, 17, 7, 6, 12, 16, 4, 19, 2, 20, 14, 3, 9, 1, 8, 11, 13, 10, 5, 18, 15, 17, 7, 6, 12, 16, 4, 19, 2, 20, 14, 3, 9, 1, 8, 11, 13, 10, 5, 18, 15, 17, 7, 6, 12, 16, 4, 19, 2, 20, 14, 3, 9, 1, 8, 11, 13, 10, 5, 18, 15, 17, 7, 6]
bestever    1487    in generation 231
[16, 12, 4, 14, 19, 2, 20, 3, 9, 1, 8, 11, 13, 10, 5, 18, 15, 17, 7, 6, 16, 12, 4, 14, 19, 2, 20, 3, 9, 1, 8, 11, 13, 10, 5, 18, 15, 17, 7, 6, 16, 12, 4, 14, 19, 2, 20, 3, 9, 1, 8, 11, 13, 10, 5, 18, 15, 17, 7, 6, 16, 12, 4, 14, 19, 2, 20, 3, 9, 1, 8, 11, 13, 10, 5, 18, 15, 17, 7, 6, 16, 12, 4, 14, 19, 2, 20, 3, 9, 1, 8, 11, 13, 10, 5, 18, 15, 17, 7, 6, 16, 12, 4, 14, 19, 2, 20, 3, 9, 1, 8, 11, 13, 10, 5, 18, 15, 17, 7, 6, 16, 12, 4, 14, 19, 2, 20, 3, 9, 1, 8, 11, 13, 10, 5, 18, 15, 17, 7, 6, 16, 12, 4, 14, 19, 2, 20, 3, 9, 1, 8, 11, 13, 10, 5, 18, 15, 17, 7, 6, 16, 12, 4, 14, 19, 2, 20, 3, 9, 1, 8, 11, 13, 10, 5, 18, 15, 17, 7, 6, 16, 12, 4, 14, 19, 2, 20, 3, 9, 1, 8, 11, 13, 10, 5, 18, 15, 17, 7, 6]
bestever    1480    in generation 253
[16, 12, 4, 14, 19, 2, 20, 10, 3, 9, 1, 8, 11, 13, 5, 18, 15, 17, 7, 6, 16, 12, 4, 14, 19, 2, 20, 10, 3, 9, 1, 8, 11, 13, 5, 18, 15, 17, 7, 6, 16, 12, 4, 14, 19, 2, 20, 10, 3, 9, 1, 8, 11, 13, 5, 18, 15, 17, 7, 6, 16, 12, 4, 14, 19, 2, 20, 10, 3, 9, 1, 8, 11, 13, 5, 18, 15, 17, 7, 6, 16, 12, 4, 14, 19, 2, 20, 10, 3, 9, 1, 8, 11, 13, 5, 18, 15, 17, 7, 6, 16, 12, 4, 14, 19, 2, 20, 10, 3, 9, 1, 8, 11, 13, 5, 18, 15, 17, 7, 6, 16, 12, 4, 14, 19, 2, 20, 10, 3, 9, 1, 8, 11, 13, 5, 18, 15, 17, 7, 6, 16, 12, 4, 14, 19, 2, 20, 10, 3, 9, 1, 8, 11, 13, 5, 18, 15, 17, 7, 6, 16, 12, 4, 14, 19, 2, 20, 10, 3, 9, 1, 8, 11, 13, 5, 18, 15, 17, 7, 6, 16, 12, 4, 14, 19, 2, 20, 10, 3, 9, 1, 8, 11, 13, 5, 18, 15, 17, 7, 6]
bestever    1478    in generation 271
[16, 12, 4, 14, 19, 2, 20, 10, 3, 9, 1, 8, 7, 11, 13, 5, 18, 15, 17, 6, 16, 12, 4, 14, 19, 2, 20, 10, 3, 9, 1, 8, 7, 11, 13, 5, 18, 15, 17, 6, 16, 12, 4, 14, 19, 2, 20, 10, 3, 9, 1, 8, 7, 11, 13, 5, 18, 15, 17, 6, 16, 12, 4, 14, 19, 2, 20, 10, 3, 9, 1, 8, 7, 11, 13, 5, 18, 15, 17, 6, 16, 12, 4, 14, 19, 2, 20, 10, 3, 9, 1, 8, 7, 11, 13, 5, 18, 15, 17, 6, 16, 12, 4, 14, 19, 2, 20, 10, 3, 9, 1, 8, 7, 11, 13, 5, 18, 15, 17, 6, 16, 12, 4, 14, 19, 2, 20, 10, 3, 9, 1, 8, 7, 11, 13, 5, 18, 15, 17, 6, 16, 12, 4, 14, 19, 2, 20, 10, 3, 9, 1, 8, 7, 11, 13, 5, 18, 15, 17, 6, 16, 12, 4, 14, 19, 2, 20, 10, 3, 9, 1, 8, 7, 11, 13, 5, 18, 15, 17, 6, 16, 12, 4, 14, 19, 2, 20, 10, 3, 9, 1, 8, 7, 11, 13, 5, 18, 15, 17, 6]
bestever    1472    in generation 425
[4, 14, 12, 16, 19, 20, 10, 2, 3, 9, 1, 8, 7, 11, 13, 5, 18, 15, 17, 6, 4, 14, 12, 16, 19, 20, 10, 2, 3, 9, 1, 8, 7, 11, 13, 5, 18, 15, 17, 6, 4, 14, 12, 16, 19, 20, 10, 2, 3, 9, 1, 8, 7, 11, 13, 18, 5, 15, 17, 6, 4, 14, 12, 16, 19, 20, 10, 2, 3, 9, 1, 8, 7, 11, 13, 18, 5, 15, 17, 6, 4, 14, 12, 16, 19, 20, 10, 2, 3, 9, 1, 8, 7, 11, 13, 18, 5, 15, 17, 6, 4, 14, 12, 16, 19, 20, 10, 2, 3, 9, 1, 8, 7, 11, 13, 18, 5, 15, 17, 6, 4, 14, 12, 16, 19, 20, 10, 2, 3, 9, 1, 8, 7, 11, 13, 18, 5, 15, 17, 6, 4, 14, 12, 16, 19, 20, 10, 2, 3, 9, 1, 8, 7, 11, 13, 18, 5, 15, 17, 6, 4, 14, 12, 16, 19, 20, 10, 2, 3, 9, 1, 8, 7, 11, 13, 5, 18, 15, 17, 6, 4, 14, 12, 16, 19, 20, 10, 2, 3, 9, 1, 8, 7, 11, 13, 5, 18, 15, 17, 6]
bestever    1471    in generation 438
[4, 14, 12, 16, 19, 20, 10, 2, 9, 3, 1, 8, 7, 11, 13, 5, 18, 15, 17, 6, 4, 14, 12, 16, 19, 20, 10, 2, 9, 3, 1, 8, 7, 11, 13, 5, 18, 15, 17, 6, 4, 14, 12, 16, 19, 20, 10, 2, 9, 3, 1, 8, 7, 11, 13, 18, 5, 15, 17, 6, 4, 14, 12, 16, 19, 20, 10, 2, 9, 3, 1, 8, 7, 11, 13, 18, 5, 15, 17, 6, 4, 14, 12, 16, 19, 20, 10, 2, 9, 3, 1, 8, 7, 11, 13, 18, 5, 15, 17, 6, 4, 14, 12, 16, 19, 20, 10, 2, 9, 3, 1, 8, 7, 11, 13, 18, 5, 15, 17, 6, 4, 14, 12, 16, 19, 20, 10, 2, 9, 3, 1, 8, 7, 11, 13, 18, 5, 15, 17, 6, 4, 14, 12, 16, 19, 20, 10, 2, 9, 3, 1, 8, 7, 11, 13, 18, 5, 15, 17, 6, 4, 14, 12, 16, 19, 20, 10, 2, 9, 3, 1, 8, 7, 11, 13, 5, 18, 15, 17, 6, 4, 14, 12, 16, 19, 20, 10, 2, 9, 3, 1, 8, 7, 11, 13, 5, 18, 15, 17, 6]
bestever    1469    in generation 3307
[16, 2, 14, 12, 19, 4, 20, 10, 9, 3, 1, 8, 7, 11, 13, 18, 15, 5, 17, 6, 16, 2, 14, 12, 19, 4, 20, 10, 9, 3, 1, 8, 7, 11, 13, 18, 15, 5, 17, 6, 16, 2, 14, 12, 19, 4, 20, 10, 9, 3, 1, 8, 7, 11, 13, 18, 15, 5, 17, 6, 16, 2, 14, 12, 19, 4, 20, 10, 9, 3, 1, 8, 7, 11, 13, 18, 15, 5, 17, 6, 16, 2, 14, 12, 19, 4, 20, 10, 9, 3, 1, 8, 7, 11, 13, 18, 15, 5, 17, 6, 16, 2, 14, 12, 19, 4, 20, 10, 9, 3, 1, 8, 7, 11, 13, 18, 15, 5, 17, 6, 16, 2, 14, 12, 19, 4, 20, 10, 9, 3, 1, 8, 7, 11, 13, 18, 15, 5, 17, 6, 16, 2, 14, 12, 19, 4, 20, 10, 9, 3, 1, 8, 7, 11, 13, 18, 5, 15, 17, 6, 16, 2, 14, 12, 19, 4, 20, 10, 9, 3, 1, 8, 7, 11, 13, 18, 5, 15, 17, 6, 16, 2, 14, 12, 19, 4, 20, 10, 9, 3, 1, 8, 7, 11, 13, 18, 5, 15, 17, 6]
bestever    1466    in generation 3447
[16, 2, 14, 12, 19, 4, 20, 10, 9, 1, 8, 7, 11, 13, 18, 15, 5, 3, 17, 6, 16, 2, 14, 12, 19, 4, 20, 10, 9, 1, 8, 7, 11, 13, 18, 15, 5, 3, 17, 6, 16, 2, 14, 12, 19, 4, 20, 10, 9, 1, 8, 7, 11, 13, 18, 15, 5, 3, 17, 6, 16, 2, 14, 12, 19, 4, 20, 10, 9, 1, 8, 7, 11, 13, 18, 15, 5, 3, 17, 6, 16, 2, 14, 12, 19, 4, 20, 10, 9, 1, 8, 7, 11, 13, 18, 15, 5, 3, 17, 6, 16, 2, 14, 12, 19, 4, 20, 10, 9, 1, 8, 7, 11, 13, 18, 15, 5, 3, 17, 6, 16, 2, 14, 12, 19, 4, 20, 10, 9, 1, 8, 7, 11, 13, 18, 15, 5, 3, 17, 6, 16, 2, 14, 12, 19, 4, 20, 10, 9, 1, 8, 7, 11, 13, 18, 5, 15, 3, 17, 6, 16, 2, 14, 12, 19, 4, 20, 10, 9, 1, 8, 7, 11, 13, 18, 5, 15, 3, 17, 6, 16, 2, 14, 12, 19, 4, 20, 10, 9, 1, 8, 7, 11, 13, 18, 5, 15, 3, 17, 6]
bestever    1457    in generation 3531
[16, 2, 14, 12, 19, 4, 20, 10, 9, 1, 8, 11, 13, 18, 15, 5, 3, 17, 7, 6, 16, 2, 14, 12, 19, 4, 20, 10, 9, 1, 8, 11, 13, 18, 15, 5, 3, 17, 7, 6, 16, 2, 14, 12, 19, 4, 20, 10, 9, 1, 8, 11, 13, 18, 15, 5, 3, 17, 7, 6, 16, 2, 14, 12, 19, 4, 20, 10, 9, 1, 8, 11, 13, 18, 15, 5, 3, 17, 7, 6, 16, 2, 14, 12, 19, 4, 20, 10, 9, 1, 8, 11, 13, 18, 15, 5, 3, 17, 7, 6, 16, 2, 14, 12, 19, 4, 20, 10, 9, 1, 8, 11, 13, 18, 15, 5, 3, 17, 7, 6, 16, 2, 14, 12, 19, 4, 20, 10, 9, 1, 8, 11, 13, 18, 15, 5, 3, 17, 7, 6, 16, 2, 14, 12, 19, 4, 20, 10, 9, 1, 8, 11, 13, 18, 5, 15, 3, 17, 7, 6, 16, 2, 14, 12, 19, 4, 20, 10, 9, 1, 8, 11, 13, 18, 5, 15, 3, 17, 7, 6, 16, 2, 14, 12, 19, 4, 20, 10, 9, 1, 8, 11, 13, 18, 5, 15, 3, 17, 7, 6]
bestever    1451    in generation 3909
[16, 2, 14, 10, 12, 19, 20, 9, 1, 8, 4, 11, 13, 18, 15, 5, 3, 17, 7, 6, 16, 2, 14, 10, 12, 19, 20, 9, 1, 8, 4, 11, 13, 18, 15, 5, 3, 17, 7, 6, 16, 2, 14, 10, 12, 19, 20, 9, 1, 8, 4, 11, 13, 18, 15, 5, 3, 17, 7, 6, 16, 2, 14, 10, 12, 19, 20, 9, 1, 8, 4, 11, 13, 18, 15, 5, 3, 17, 7, 6, 16, 2, 14, 10, 12, 19, 20, 9, 1, 8, 4, 11, 13, 18, 15, 5, 3, 17, 7, 6, 16, 2, 14, 10, 12, 19, 20, 9, 1, 8, 4, 11, 13, 18, 15, 5, 3, 17, 7, 6, 16, 2, 14, 10, 12, 19, 20, 9, 1, 8, 4, 11, 13, 18, 15, 5, 3, 17, 7, 6, 16, 2, 14, 10, 12, 19, 20, 9, 1, 8, 4, 11, 13, 18, 5, 15, 3, 17, 7, 6, 16, 2, 14, 10, 12, 19, 20, 9, 1, 8, 4, 11, 13, 18, 5, 15, 3, 17, 7, 6, 16, 2, 14, 12, 19, 10, 20, 9, 1, 8, 4, 11, 13, 18, 5, 15, 3, 17, 7, 6]
bestever    1448    in generation 3934
[16, 14, 10, 12, 19, 2, 20, 9, 1, 8, 4, 11, 13, 18, 15, 5, 3, 17, 7, 6, 16, 14, 10, 12, 19, 2, 20, 9, 1, 8, 4, 11, 13, 18, 15, 5, 3, 17, 7, 6, 16, 14, 10, 12, 19, 2, 20, 9, 1, 8, 4, 11, 13, 18, 15, 5, 3, 17, 7, 6, 16, 14, 10, 12, 19, 2, 20, 9, 1, 8, 4, 11, 13, 18, 15, 5, 3, 17, 7, 6, 16, 14, 10, 12, 19, 2, 20, 9, 1, 8, 4, 11, 13, 18, 15, 5, 3, 17, 7, 6, 16, 14, 10, 12, 19, 2, 20, 9, 1, 8, 4, 11, 13, 18, 15, 5, 3, 17, 7, 6, 16, 14, 10, 12, 19, 2, 20, 9, 1, 8, 4, 11, 13, 18, 15, 5, 3, 17, 7, 6, 16, 14, 10, 12, 19, 2, 20, 9, 1, 8, 4, 11, 13, 18, 5, 15, 3, 17, 7, 6, 16, 14, 10, 12, 19, 2, 20, 9, 1, 8, 4, 11, 13, 18, 5, 15, 3, 17, 7, 6, 16, 14, 12, 19, 10, 2, 20, 9, 1, 8, 4, 11, 13, 18, 5, 15, 3, 17, 7, 6]
bestever    1445    in generation 3948
[16, 14, 10, 12, 19, 20, 2, 9, 1, 8, 4, 11, 13, 18, 15, 5, 3, 17, 7, 6, 16, 14, 10, 12, 19, 20, 2, 9, 1, 8, 4, 11, 13, 18, 15, 5, 3, 17, 7, 6, 16, 14, 10, 12, 19, 20, 2, 9, 1, 8, 4, 11, 13, 18, 15, 5, 3, 17, 7, 6, 16, 14, 10, 12, 19, 20, 2, 9, 1, 8, 4, 11, 13, 18, 15, 5, 3, 17, 7, 6, 16, 14, 10, 12, 19, 20, 2, 9, 1, 8, 4, 11, 13, 18, 15, 5, 3, 17, 7, 6, 16, 14, 10, 12, 19, 20, 2, 9, 1, 8, 4, 11, 13, 18, 15, 5, 3, 17, 7, 6, 16, 14, 10, 12, 19, 20, 2, 9, 1, 8, 4, 11, 13, 18, 15, 5, 3, 17, 7, 6, 16, 14, 10, 12, 19, 20, 2, 9, 1, 8, 4, 11, 13, 18, 5, 15, 3, 17, 7, 6, 16, 14, 10, 12, 19, 20, 2, 9, 1, 8, 4, 11, 13, 18, 5, 15, 3, 17, 7, 6, 16, 14, 12, 19, 10, 20, 2, 9, 1, 8, 4, 11, 13, 18, 5, 15, 3, 17, 7, 6]
bestever    1444    in generation 4516
[16, 14, 10, 12, 19, 20, 2, 9, 1, 8, 4, 11, 13, 18, 16, 14, 10, 12, 19, 20, 2, 9, 1, 8, 4, 11, 13, 18, 15, 5, 3, 17, 7, 6, 15, 5, 3, 17, 7, 6, 16, 14, 10, 12, 19, 20, 2, 9, 1, 8, 4, 11, 13, 18, 15, 5, 3, 17, 7, 6, 16, 14, 10, 12, 19, 20, 2, 9, 1, 8, 4, 11, 13, 18, 15, 5, 3, 17, 7, 6, 16, 14, 10, 12, 19, 20, 2, 9, 1, 8, 4, 11, 13, 18, 15, 5, 3, 17, 7, 6, 16, 14, 10, 12, 20, 19, 2, 9, 1, 8, 4, 11, 13, 18, 15, 5, 3, 17, 7, 6, 16, 14, 10, 12, 20, 19, 2, 9, 1, 8, 4, 11, 13, 18, 15, 5, 3, 17, 7, 6, 16, 14, 10, 12, 19, 20, 2, 9, 1, 8, 4, 11, 13, 18, 5, 15, 3, 17, 7, 6, 16, 14, 10, 12, 19, 20, 2, 9, 1, 8, 4, 11, 13, 18, 5, 15, 3, 17, 7, 6, 16, 14, 12, 19, 10, 20, 2, 9, 1, 8, 4, 11, 13, 18, 5, 15, 3, 17, 7, 6]
